172730 -1 417331 10964735 177176 1
172020 -1 428914 11266403 176982 1
172228 -1 310704 8153404 175558 0.99
172654 -1 347182 9144197 178624 1
172610 -1 392466 10304788 176812 0.99
172120 -1 368544 9674967 178914 1
172364 -1 407824 10711749 178850 1
172148 -1 424180 11140306 179416 0.97
172084 -1 403294 10627372 179868 1
171962 -1 388371 10192285 177576 0.98
